sat
(:eliminated-vars              1
 :max-memory                   18.10
 :memory                       18.00
 :nlsat-irrational-assignments 2
 :nlsat-propagations           7
 :nlsat-stages                 4
 :num-allocs                   6831
 :rlimit-count                 2098
 :time                         0.00
 :total-time                   0.01)
